
   7    4
  10   10   10   10

   0   0   0   0   0   3 2 5 6 
   3  10  10  10  10   1 3 
   3  10  10  10  10   1 4 
   7  10  10  10  10   1 7
   2  10  10  10  10   1 7
   8  10  10  10  10   1 7
   0   0   0   0   0   0 
